# Objective value = 3.0054379774627114e+02
x[0] 1
x[1] 0
x[2] 1
x[3] 1
x[4] 1
x[5] 0
x[6] 1
x[7] 1
x[8] 1
x[9] 1
x[10] 0
x[11] 0
x[12] 1
x[13] 1
x[14] 0
x[15] 1
x[16] 1
x[17] 1
x[18] 0
x[19] 1
x[20] 0
x[21] 1
x[22] 1
x[23] 1
x[24] 0
x[25] 1
x[26] 1
x[27] 0
x[28] 1
x[29] 0
x[30] 0
x[31] 0
x[32] 0
x[33] 0
x[34] 1
x[35] 1
x[36] 0
x[37] 0
x[38] 0
x[39] 1
x[40] 1
x[41] 0
x[42] 0
x[43] 1
x[44] 1
x[45] 0
x[46] 1
x[47] 0
x[48] 0
x[49] 1
x[50] 0
x[51] 0
x[52] 0
x[53] 1
x[54] 1
x[55] 1
x[56] 0
x[57] 0
x[58] 0
x[59] 0
x[60] 1
x[61] 1
x[62] 0
x[63] 0
x[64] 0
x[65] 1
x[66] 1
x[67] 0
x[68] 0
x[69] 0
x[70] 1
x[71] 0
x[72] 0
x[73] 1
x[74] 0
x[75] 0
x[76] 1
x[77] 0
x[78] 1
x[79] 0
x[80] 1
x[81] 0
x[82] 1
x[83] 0
x[84] 1
x[85] 0
x[86] 1
x[87] 0
x[88] 1
x[89] 1
x[90] 1
x[91] 0
x[92] 0
x[93] 1
x[94] 0
x[95] 1
x[96] 1
x[97] 0
x[98] 0
x[99] 0
x[100] 1
x[101] 1
x[102] 1
x[103] 0
x[104] 0
x[105] 1
x[106] 1
x[107] 1
x[108] 0
x[109] 1
x[110] 0
x[111] 0
x[112] 0
x[113] 1
x[114] 1
x[115] 0
x[116] 1
x[117] 1
x[118] 0
x[119] 0
x[120] 1
x[121] 1
x[122] 1
x[123] 1
x[124] 0
x[125] 1
x[126] 0
x[127] 0
x[128] 0
x[129] 0
x[130] 0
x[131] 0
x[132] 1
x[133] 1
x[134] 1
x[135] 1
x[136] 0
x[137] 0
x[138] 1
x[139] 1
x[140] 1
x[141] 1
x[142] 0
x[143] 1
x[144] 0
x[145] 0
x[146] 0
x[147] 0
x[148] 0
x[149] 1
x[150] 0
x[151] 1
x[152] 1
x[153] 0
x[154] 0
x[155] 1
x[156] 0
x[157] 0
x[158] 0
x[159] 1
x[160] 0
x[161] 1
x[162] 1
x[163] 0
x[164] 1
x[165] 1
x[166] 0
x[167] 0
x[168] 1
x[169] 1
x[170] 1
x[171] 1
x[172] 1
x[173] 1
x[174] 1
x[175] 0
x[176] 1
x[177] 0
x[178] 0
x[179] 0
x[180] 0
x[181] 0
x[182] 0
x[183] 1
x[184] 1
x[185] 0
x[186] 1
x[187] 1
x[188] 0
x[189] 1
x[190] 1
x[191] 1
x[192] 0
x[193] 1
x[194] 1
x[195] 1
x[196] 1
x[197] 1
x[198] 1
x[199] 0
x[200] 0
x[201] 0
x[202] 1
x[203] 1
x[204] 0
x[205] 1
x[206] 0
x[207] 1
x[208] 0
x[209] 0
x[210] 0
x[211] 0
x[212] 0
x[213] 0
x[214] 0
x[215] 1
x[216] 0
x[217] 0
x[218] 0
x[219] 1
x[220] 1
x[221] 0
x[222] 0
x[223] 1
x[224] 1
x[225] 0
x[226] 1
x[227] 1
x[228] 0
x[229] 0
x[230] 0
x[231] 0
x[232] 0
x[233] 0
x[234] 0
x[235] 0
x[236] 1
x[237] 1
x[238] 0
x[239] 1
x[240] 1
x[241] 1
x[242] 1
x[243] 1
x[244] 0
x[245] 0
x[246] 1
x[247] 1
x[248] 0
x[249] 0
x[250] 1
x[251] 0
x[252] 0
x[253] 0
x[254] 1
x[255] 1
x[256] 0
x[257] 1
x[258] 1
x[259] 0
x[260] 1
x[261] 0
x[262] 0
x[263] 0
x[264] 0
x[265] 0
x[266] 1
x[267] 1
x[268] 1
x[269] 0
x[270] 1
x[271] 0
x[272] 0
x[273] 0
x[274] 0
x[275] 0
x[276] 1
x[277] 0
x[278] 0
x[279] 0
x[280] 1
x[281] 1
x[282] 0
x[283] 1
x[284] 0
x[285] 1
x[286] 1
x[287] 1
x[288] 0
x[289] 0
x[290] 0
x[291] 1
x[292] 1
x[293] 1
x[294] 1
x[295] 1
x[296] 1
x[297] 1
x[298] 1
x[299] 0
x[300] 0
x[301] 0
x[302] 0
x[303] 1
x[304] 1
x[305] 0
x[306] 0
x[307] 1
x[308] 1
x[309] 0
x[310] 1
x[311] 0
x[312] 1
x[313] 0
x[314] 1
x[315] 0
x[316] 0
x[317] 0
x[318] 1
x[319] 1
x[320] 0
x[321] 1
x[322] 1
x[323] 1
x[324] 0
x[325] 0
x[326] 0
x[327] 1
x[328] 0
x[329] 1
x[330] 1
x[331] 1
x[332] 0
x[333] 1
x[334] 1
x[335] 1
x[336] 1
x[337] 0
x[338] 0
x[339] 1
x[340] 0
x[341] 0
x[342] 0
x[343] 1
x[344] 1
x[345] 1
x[346] 1
x[347] 0
x[348] 1
x[349] 0
x[350] 1
x[351] 1
x[352] 0
x[353] 0
x[354] 1
x[355] 0
x[356] 0
x[357] 1
x[358] 1
x[359] 1
x[360] 0
x[361] 1
x[362] 0
x[363] 1
x[364] 0
x[365] 1
x[366] 1
x[367] 1
x[368] 1
x[369] 0
x[370] 0
x[371] 0
x[372] 0
x[373] 1
x[374] 1
x[375] 1
x[376] 0
x[377] 0
x[378] 0
x[379] 0
x[380] 0
x[381] 0
x[382] 0
x[383] 0
x[384] 1
x[385] 1
x[386] 0
x[387] 0
x[388] 1
x[389] 1
x[390] 1
x[391] 0
x[392] 0
x[393] 0
x[394] 0
x[395] 1
x[396] 0
x[397] 0
x[398] 1
x[399] 0
x[400] 0
x[401] 1
x[402] 0
x[403] 0
x[404] 1
x[405] 1
x[406] 0
x[407] 0
x[408] 0
x[409] 1
x[410] 0
x[411] 0
x[412] 0
x[413] 0
x[414] 1
x[415] 1
x[416] 1
x[417] 1
x[418] 1
x[419] 1
x[420] 0
x[421] 0
x[422] 0
x[423] 1
x[424] 1
x[425] 0
x[426] 0
x[427] 0
x[428] 0
x[429] 0
x[430] 0
x[431] 0
x[432] 0
x[433] 1
x[434] 1
x[435] 0
x[436] 1
x[437] 1
x[438] 1
x[439] 0
x[440] 1
x[441] 0
x[442] 1
x[443] 0
x[444] 1
x[445] 1
x[446] 0
x[447] 1
x[448] 0
x[449] 0
x[450] 0
x[451] 1
x[452] 1
x[453] 0
x[454] 1
x[455] 0
x[456] 0
x[457] 1
x[458] 1
x[459] 1
x[460] 1
x[461] 0
x[462] 0
x[463] 0
x[464] 0
x[465] 0
x[466] 1
x[467] 1
x[468] 0
x[469] 1
x[470] 1
x[471] 1
x[472] 1
x[473] 1
x[474] 0
x[475] 0
x[476] 1
x[477] 1
x[478] 0
x[479] 0
x[480] 0
x[481] 0
x[482] 1
x[483] 0
x[484] 0
x[485] 0
x[486] 0
x[487] 0
x[488] 0
x[489] 1
x[490] 1
x[491] 1
x[492] 1
x[493] 1
x[494] 0
x[495] 1
x[496] 1
x[497] 1
x[498] 1
x[499] 1
x[500] 0
x[501] 1
x[502] 0
x[503] 1
x[504] 0
x[505] 1
x[506] 0
x[507] 1
x[508] 1
x[509] 0
x[510] 0
x[511] 1
x[512] 0
x[513] 1
x[514] 0
x[515] 1
x[516] 1
x[517] 0
x[518] 0
x[519] 1
x[520] 1
x[521] 1
x[522] 0
x[523] 0
x[524] 0
x[525] 1
x[526] 0
x[527] 0
x[528] 1
x[529] 0
x[530] 0
x[531] 1
x[532] 1
x[533] 0
x[534] 1
x[535] 0
x[536] 1
x[537] 0
x[538] 1
x[539] 0
x[540] 1
x[541] 0
x[542] 0
x[543] 1
x[544] 0
x[545] 1
x[546] 1
x[547] 1
x[548] 0
x[549] 0
x[550] 0
x[551] 0
x[552] 0
x[553] 0
x[554] 0
x[555] 1
x[556] 1
x[557] 1
x[558] 1
x[559] 1
x[560] 1
x[561] 0
x[562] 1
x[563] 0
x[564] 0
x[565] 0
x[566] 1
x[567] 1
x[568] 1
x[569] 0
x[570] 0
x[571] 1
x[572] 1
x[573] 0
x[574] 0
x[575] 0
x[576] 1
x[577] 0
x[578] 0
x[579] 1
x[580] 1
x[581] 1
x[582] 0
x[583] 1
x[584] 1
x[585] 0
x[586] 1
x[587] 0
x[588] 0
x[589] 0
x[590] 0
x[591] 0
x[592] 0
x[593] 0
x[594] 0
x[595] 1
x[596] 1
x[597] 0
x[598] 1
x[599] 0
x[600] 0
x[601] 0
x[602] 1
x[603] 0
x[604] 0
x[605] 1
x[606] 0
x[607] 1
x[608] 1
x[609] 0
x[610] 1
x[611] 0
x[612] 0
x[613] 1
x[614] 0
x[615] 1
x[616] 0
x[617] 0
x[618] 1
x[619] 0
x[620] 0
x[621] 1
x[622] 1
x[623] 1
x[624] 1
x[625] 0
x[626] 0
x[627] 1
x[628] 0
x[629] 0
x[630] 0
x[631] 1
x[632] 1
x[633] 0
x[634] 0
x[635] 1
x[636] 0
x[637] 0
x[638] 0
x[639] 0
x[640] 1
x[641] 1
x[642] 0
x[643] 0
x[644] 0
x[645] 1
x[646] 0
x[647] 0
x[648] 1
x[649] 0
x[650] 0
x[651] 0
x[652] 0
x[653] 0
x[654] 0
x[655] 0
x[656] 1
x[657] 0
x[658] 1
x[659] 0
x[660] 0
x[661] 0
x[662] 0
x[663] 0
x[664] 1
x[665] 1
x[666] 1
x[667] 1
x[668] 0
x[669] 0
x[670] 0
x[671] 0
x[672] 1
x[673] 1
x[674] 0
x[675] 1
x[676] 0
x[677] 0
x[678] 1
x[679] 1
x[680] 0
x[681] 1
x[682] 0
x[683] 1
x[684] 0
x[685] 0
x[686] 0
x[687] 0
x[688] 0
x[689] 1
x[690] 1
x[691] 0
x[692] 0
x[693] 1
x[694] 1
x[695] 0
x[696] 1
x[697] 0
x[698] 0
x[699] 1
x[700] 0
x[701] 1
x[702] 1
x[703] 0
x[704] 0
x[705] 0
x[706] 1
x[707] 1
x[708] 1
x[709] 1
x[710] 0
x[711] 1
x[712] 1
x[713] 1
x[714] 0
x[715] 0
x[716] 1
x[717] 1
x[718] 1
x[719] 1
x[720] 1
x[721] 1
x[722] 1
x[723] 0
x[724] 0
x[725] 0
x[726] 0
x[727] 0
x[728] 0
x[729] 0
x[730] 0
x[731] 0
x[732] 1
x[733] 1
x[734] 0
x[735] 0
x[736] 0
x[737] 1
x[738] 0
x[739] 0
x[740] 0
x[741] 1
x[742] 1
x[743] 1
x[744] 0
x[745] 1
x[746] 1
x[747] 1
x[748] 1
x[749] 1
x[750] 0
x[751] 0
x[752] 1
x[753] 0
x[754] 1
x[755] 1
x[756] 0
x[757] 1
x[758] 0
x[759] 0
x[760] 0
x[761] 0
x[762] 0
x[763] 0
x[764] 1
x[765] 1
x[766] 1
x[767] 1
x[768] 0
x[769] 1
x[770] 1
x[771] 0
x[772] 0
x[773] 1
x[774] 1
x[775] 1
x[776] 1
x[777] 1
x[778] 0
x[779] 0
x[780] 0
x[781] 0
x[782] 1
x[783] 1
x[784] 0
x[785] 1
x[786] 0
x[787] 1
x[788] 0
x[789] 1
x[790] 0
x[791] 0
x[792] 1
x[793] 0
x[794] 1
x[795] 0
x[796] 1
x[797] 1
x[798] 0
x[799] 1
x[800] 1
x[801] 0
x[802] 0
x[803] 0
x[804] 1
x[805] 0
x[806] 1
x[807] 0
x[808] 0
x[809] 1
x[810] 0
x[811] 1
x[812] 1
x[813] 0
x[814] 1
x[815] 1
x[816] 1
x[817] 1
x[818] 0
x[819] 0
x[820] 0
x[821] 1
x[822] 0
x[823] 1
x[824] 0
x[825] 1
x[826] 1
x[827] 1
x[828] 0
x[829] 1
x[830] 1
x[831] 1
x[832] 0
x[833] 1
x[834] 0
x[835] 0
x[836] 1
x[837] 0
x[838] 0
x[839] 1
x[840] 0
x[841] 0
x[842] 1
x[843] 1
x[844] 0
x[845] 0
x[846] 1
x[847] 1
x[848] 0
x[849] 0
x[850] 0
x[851] 0
x[852] 0
x[853] 0
x[854] 0
x[855] 1
x[856] 1
x[857] 0
x[858] 0
x[859] 0
x[860] 0
x[861] 1
x[862] 0
x[863] 1
x[864] 0
x[865] 1
x[866] 1
x[867] 1
x[868] 0
x[869] 1
x[870] 0
x[871] 0
x[872] 1
x[873] 0
x[874] 1
x[875] 0
x[876] 1
x[877] 1
x[878] 0
x[879] 0
x[880] 1
x[881] 1
x[882] 0
x[883] 1
x[884] 1
x[885] 0
x[886] 0
x[887] 0
x[888] 0
x[889] 0
x[890] 1
x[891] 1
x[892] 0
x[893] 1
x[894] 0
x[895] 1
x[896] 1
x[897] 1
x[898] 1
x[899] 0
x[900] 0
x[901] 0
x[902] 0
x[903] 0
x[904] 1
x[905] 1
x[906] 0
x[907] 0
x[908] 1
x[909] 0
x[910] 1
x[911] 1
x[912] 0
x[913] 1
x[914] 1
x[915] 0
x[916] 1
x[917] 1
x[918] 0
x[919] 1
x[920] 0
x[921] 1
x[922] 0
x[923] 0
x[924] 0
x[925] 0
x[926] 0
x[927] 0
x[928] 1
x[929] 0
x[930] 1
x[931] 1
x[932] 0
x[933] 0
x[934] 0
x[935] 0
x[936] 0
x[937] 1
x[938] 1
x[939] 1
x[940] 1
x[941] 0
x[942] 0
x[943] 0
x[944] 1
x[945] 1
x[946] 0
x[947] 1
x[948] 0
x[949] 0
x[950] 0
x[951] 0
x[952] 1
x[953] 0
x[954] 0
x[955] 1
x[956] 0
x[957] 1
x[958] 1
x[959] 1
x[960] 1
x[961] 1
x[962] 1
x[963] 1
x[964] 1
x[965] 0
x[966] 0
x[967] 1
x[968] 1
x[969] 1
x[970] 0
x[971] 0
x[972] 1
x[973] 1
x[974] 0
x[975] 1
x[976] 0
x[977] 0
x[978] 1
x[979] 1
x[980] 1
x[981] 0
x[982] 0
x[983] 1
x[984] 1
x[985] 1
x[986] 0
x[987] 0
x[988] 1
x[989] 0
x[990] 1
x[991] 0
x[992] 1
x[993] 0
x[994] 0
x[995] 0
x[996] 0
x[997] 1
x[998] 0
x[999] 0
